nNurses = 143;
nHours = 28;
minHours = 4;
maxHours = 16;
maxConsec = 16;
maxPresence = 16;
demand = [50, 50, 49, 47, 46, 49, 49, 47, 48, 43, 48, 45, 50, 48, 49, 46, 47, 49, 46, 48, 43, 44, 43, 40, 42, 38, 40, 39];
